certificates/rado_a22_c18_N119.cnf
c Rad2 upper bound instance: x1 + 22*x2 - x3 = 18, interval [1,119]
p cnf 119 720
1 5 0
-1 -5 0
1 2 27 0
-1 -2 -27 0
1 3 49 0
-1 -3 -49 0
1 4 71 0
-1 -4 -71 0
1 5 93 0
-1 -5 -93 0
1 6 115 0
-1 -6 -115 0
1 2 6 0
-1 -2 -6 0
2 28 0
-2 -28 0
2 3 50 0
-2 -3 -50 0
2 4 72 0
-2 -4 -72 0
2 5 94 0
-2 -5 -94 0
2 6 116 0
-2 -6 -116 0
1 3 7 0
-1 -3 -7 0
2 3 29 0
-2 -3 -29 0
3 51 0
-3 -51 0
3 4 73 0
-3 -4 -73 0
3 5 95 0
-3 -5 -95 0
3 6 117 0
-3 -6 -117 0
1 4 8 0
-1 -4 -8 0
2 4 30 0
-2 -4 -30 0
3 4 52 0
-3 -4 -52 0
4 74 0
-4 -74 0
4 5 96 0
-4 -5 -96 0
4 6 118 0
-4 -6 -118 0
1 5 9 0
-1 -5 -9 0
2 5 31 0
-2 -5 -31 0
3 5 53 0
-3 -5 -53 0
4 5 75 0
-4 -5 -75 0
5 97 0
-5 -97 0
5 6 119 0
-5 -6 -119 0
1 6 10 0
-1 -6 -10 0
2 6 32 0
-2 -6 -32 0
3 6 54 0
-3 -6 -54 0
4 6 76 0
-4 -6 -76 0
5 6 98 0
-5 -6 -98 0
1 7 11 0
-1 -7 -11 0
2 7 33 0
-2 -7 -33 0
3 7 55 0
-3 -7 -55 0
4 7 77 0
-4 -7 -77 0
5 7 99 0
-5 -7 -99 0
1 8 12 0
-1 -8 -12 0
2 8 34 0
-2 -8 -34 0
3 8 56 0
-3 -8 -56 0
4 8 78 0
-4 -8 -78 0
5 8 100 0
-5 -8 -100 0
1 9 13 0
-1 -9 -13 0
2 9 35 0
-2 -9 -35 0
3 9 57 0
-3 -9 -57 0
4 9 79 0
-4 -9 -79 0
5 9 101 0
-5 -9 -101 0
1 10 14 0
-1 -10 -14 0
2 10 36 0
-2 -10 -36 0
3 10 58 0
-3 -10 -58 0
4 10 80 0
-4 -10 -80 0
5 10 102 0
-5 -10 -102 0
1 11 15 0
-1 -11 -15 0
2 11 37 0
-2 -11 -37 0
3 11 59 0
-3 -11 -59 0
4 11 81 0
-4 -11 -81 0
5 11 103 0
-5 -11 -103 0
1 12 16 0
-1 -12 -16 0
2 12 38 0
-2 -12 -38 0
3 12 60 0
-3 -12 -60 0
4 12 82 0
-4 -12 -82 0
5 12 104 0
-5 -12 -104 0
1 13 17 0
-1 -13 -17 0
2 13 39 0
-2 -13 -39 0
3 13 61 0
-3 -13 -61 0
4 13 83 0
-4 -13 -83 0
5 13 105 0
-5 -13 -105 0
1 14 18 0
-1 -14 -18 0
2 14 40 0
-2 -14 -40 0
3 14 62 0
-3 -14 -62 0
4 14 84 0
-4 -14 -84 0
5 14 106 0
-5 -14 -106 0
1 15 19 0
-1 -15 -19 0
2 15 41 0
-2 -15 -41 0
3 15 63 0
-3 -15 -63 0
4 15 85 0
-4 -15 -85 0
5 15 107 0
-5 -15 -107 0
1 16 20 0
-1 -16 -20 0
2 16 42 0
-2 -16 -42 0
3 16 64 0
-3 -16 -64 0
4 16 86 0
-4 -16 -86 0
5 16 108 0
-5 -16 -108 0
1 17 21 0
-1 -17 -21 0
2 17 43 0
-2 -17 -43 0
3 17 65 0
-3 -17 -65 0
4 17 87 0
-4 -17 -87 0
5 17 109 0
-5 -17 -109 0
1 18 22 0
-1 -18 -22 0
2 18 44 0
-2 -18 -44 0
3 18 66 0
-3 -18 -66 0
4 18 88 0
-4 -18 -88 0
5 18 110 0
-5 -18 -110 0
1 19 23 0
-1 -19 -23 0
2 19 45 0
-2 -19 -45 0
3 19 67 0
-3 -19 -67 0
4 19 89 0
-4 -19 -89 0
5 19 111 0
-5 -19 -111 0
1 20 24 0
-1 -20 -24 0
2 20 46 0
-2 -20 -46 0
3 20 68 0
-3 -20 -68 0
4 20 90 0
-4 -20 -90 0
5 20 112 0
-5 -20 -112 0
1 21 25 0
-1 -21 -25 0
2 21 47 0
-2 -21 -47 0
3 21 69 0
-3 -21 -69 0
4 21 91 0
-4 -21 -91 0
5 21 113 0
-5 -21 -113 0
1 22 26 0
-1 -22 -26 0
2 22 48 0
-2 -22 -48 0
3 22 70 0
-3 -22 -70 0
4 22 92 0
-4 -22 -92 0
5 22 114 0
-5 -22 -114 0
1 23 27 0
-1 -23 -27 0
2 23 49 0
-2 -23 -49 0
3 23 71 0
-3 -23 -71 0
4 23 93 0
-4 -23 -93 0
5 23 115 0
-5 -23 -115 0
1 24 28 0
-1 -24 -28 0
2 24 50 0
-2 -24 -50 0
3 24 72 0
-3 -24 -72 0
4 24 94 0
-4 -24 -94 0
5 24 116 0
-5 -24 -116 0
1 25 29 0
-1 -25 -29 0
2 25 51 0
-2 -25 -51 0
3 25 73 0
-3 -25 -73 0
4 25 95 0
-4 -25 -95 0
5 25 117 0
-5 -25 -117 0
1 26 30 0
-1 -26 -30 0
2 26 52 0
-2 -26 -52 0
3 26 74 0
-3 -26 -74 0
4 26 96 0
-4 -26 -96 0
5 26 118 0
-5 -26 -118 0
1 27 31 0
-1 -27 -31 0
2 27 53 0
-2 -27 -53 0
3 27 75 0
-3 -27 -75 0
4 27 97 0
-4 -27 -97 0
5 27 119 0
-5 -27 -119 0
1 28 32 0
-1 -28 -32 0
2 28 54 0
-2 -28 -54 0
3 28 76 0
-3 -28 -76 0
4 28 98 0
-4 -28 -98 0
1 29 33 0
-1 -29 -33 0
2 29 55 0
-2 -29 -55 0
3 29 77 0
-3 -29 -77 0
4 29 99 0
-4 -29 -99 0
1 30 34 0
-1 -30 -34 0
2 30 56 0
-2 -30 -56 0
3 30 78 0
-3 -30 -78 0
4 30 100 0
-4 -30 -100 0
1 31 35 0
-1 -31 -35 0
2 31 57 0
-2 -31 -57 0
3 31 79 0
-3 -31 -79 0
4 31 101 0
-4 -31 -101 0
1 32 36 0
-1 -32 -36 0
2 32 58 0
-2 -32 -58 0
3 32 80 0
-3 -32 -80 0
4 32 102 0
-4 -32 -102 0
1 33 37 0
-1 -33 -37 0
2 33 59 0
-2 -33 -59 0
3 33 81 0
-3 -33 -81 0
4 33 103 0
-4 -33 -103 0
1 34 38 0
-1 -34 -38 0
2 34 60 0
-2 -34 -60 0
3 34 82 0
-3 -34 -82 0
4 34 104 0
-4 -34 -104 0
1 35 39 0
-1 -35 -39 0
2 35 61 0
-2 -35 -61 0
3 35 83 0
-3 -35 -83 0
4 35 105 0
-4 -35 -105 0
1 36 40 0
-1 -36 -40 0
2 36 62 0
-2 -36 -62 0
3 36 84 0
-3 -36 -84 0
4 36 106 0
-4 -36 -106 0
1 37 41 0
-1 -37 -41 0
2 37 63 0
-2 -37 -63 0
3 37 85 0
-3 -37 -85 0
4 37 107 0
-4 -37 -107 0
1 38 42 0
-1 -38 -42 0
2 38 64 0
-2 -38 -64 0
3 38 86 0
-3 -38 -86 0
4 38 108 0
-4 -38 -108 0
1 39 43 0
-1 -39 -43 0
2 39 65 0
-2 -39 -65 0
3 39 87 0
-3 -39 -87 0
4 39 109 0
-4 -39 -109 0
1 40 44 0
-1 -40 -44 0
2 40 66 0
-2 -40 -66 0
3 40 88 0
-3 -40 -88 0
4 40 110 0
-4 -40 -110 0
1 41 45 0
-1 -41 -45 0
2 41 67 0
-2 -41 -67 0
3 41 89 0
-3 -41 -89 0
4 41 111 0
-4 -41 -111 0
1 42 46 0
-1 -42 -46 0
2 42 68 0
-2 -42 -68 0
3 42 90 0
-3 -42 -90 0
4 42 112 0
-4 -42 -112 0
1 43 47 0
-1 -43 -47 0
2 43 69 0
-2 -43 -69 0
3 43 91 0
-3 -43 -91 0
4 43 113 0
-4 -43 -113 0
1 44 48 0
-1 -44 -48 0
2 44 70 0
-2 -44 -70 0
3 44 92 0
-3 -44 -92 0
4 44 114 0
-4 -44 -114 0
1 45 49 0
-1 -45 -49 0
2 45 71 0
-2 -45 -71 0
3 45 93 0
-3 -45 -93 0
4 45 115 0
-4 -45 -115 0
1 46 50 0
-1 -46 -50 0
2 46 72 0
-2 -46 -72 0
3 46 94 0
-3 -46 -94 0
4 46 116 0
-4 -46 -116 0
1 47 51 0
-1 -47 -51 0
2 47 73 0
-2 -47 -73 0
3 47 95 0
-3 -47 -95 0
4 47 117 0
-4 -47 -117 0
1 48 52 0
-1 -48 -52 0
2 48 74 0
-2 -48 -74 0
3 48 96 0
-3 -48 -96 0
4 48 118 0
-4 -48 -118 0
1 49 53 0
-1 -49 -53 0
2 49 75 0
-2 -49 -75 0
3 49 97 0
-3 -49 -97 0
4 49 119 0
-4 -49 -119 0
1 50 54 0
-1 -50 -54 0
2 50 76 0
-2 -50 -76 0
3 50 98 0
-3 -50 -98 0
1 51 55 0
-1 -51 -55 0
2 51 77 0
-2 -51 -77 0
3 51 99 0
-3 -51 -99 0
1 52 56 0
-1 -52 -56 0
2 52 78 0
-2 -52 -78 0
3 52 100 0
-3 -52 -100 0
1 53 57 0
-1 -53 -57 0
2 53 79 0
-2 -53 -79 0
3 53 101 0
-3 -53 -101 0
1 54 58 0
-1 -54 -58 0
2 54 80 0
-2 -54 -80 0
3 54 102 0
-3 -54 -102 0
1 55 59 0
-1 -55 -59 0
2 55 81 0
-2 -55 -81 0
3 55 103 0
-3 -55 -103 0
1 56 60 0
-1 -56 -60 0
2 56 82 0
-2 -56 -82 0
3 56 104 0
-3 -56 -104 0
1 57 61 0
-1 -57 -61 0
2 57 83 0
-2 -57 -83 0
3 57 105 0
-3 -57 -105 0
1 58 62 0
-1 -58 -62 0
2 58 84 0
-2 -58 -84 0
3 58 106 0
-3 -58 -106 0
1 59 63 0
-1 -59 -63 0
2 59 85 0
-2 -59 -85 0
3 59 107 0
-3 -59 -107 0
1 60 64 0
-1 -60 -64 0
2 60 86 0
-2 -60 -86 0
3 60 108 0
-3 -60 -108 0
1 61 65 0
-1 -61 -65 0
2 61 87 0
-2 -61 -87 0
3 61 109 0
-3 -61 -109 0
1 62 66 0
-1 -62 -66 0
2 62 88 0
-2 -62 -88 0
3 62 110 0
-3 -62 -110 0
1 63 67 0
-1 -63 -67 0
2 63 89 0
-2 -63 -89 0
3 63 111 0
-3 -63 -111 0
1 64 68 0
-1 -64 -68 0
2 64 90 0
-2 -64 -90 0
3 64 112 0
-3 -64 -112 0
1 65 69 0
-1 -65 -69 0
2 65 91 0
-2 -65 -91 0
3 65 113 0
-3 -65 -113 0
1 66 70 0
-1 -66 -70 0
2 66 92 0
-2 -66 -92 0
3 66 114 0
-3 -66 -114 0
1 67 71 0
-1 -67 -71 0
2 67 93 0
-2 -67 -93 0
3 67 115 0
-3 -67 -115 0
1 68 72 0
-1 -68 -72 0
2 68 94 0
-2 -68 -94 0
3 68 116 0
-3 -68 -116 0
1 69 73 0
-1 -69 -73 0
2 69 95 0
-2 -69 -95 0
3 69 117 0
-3 -69 -117 0
1 70 74 0
-1 -70 -74 0
2 70 96 0
-2 -70 -96 0
3 70 118 0
-3 -70 -118 0
1 71 75 0
-1 -71 -75 0
2 71 97 0
-2 -71 -97 0
3 71 119 0
-3 -71 -119 0
1 72 76 0
-1 -72 -76 0
2 72 98 0
-2 -72 -98 0
1 73 77 0
-1 -73 -77 0
2 73 99 0
-2 -73 -99 0
1 74 78 0
-1 -74 -78 0
2 74 100 0
-2 -74 -100 0
1 75 79 0
-1 -75 -79 0
2 75 101 0
-2 -75 -101 0
1 76 80 0
-1 -76 -80 0
2 76 102 0
-2 -76 -102 0
1 77 81 0
-1 -77 -81 0
2 77 103 0
-2 -77 -103 0
1 78 82 0
-1 -78 -82 0
2 78 104 0
-2 -78 -104 0
1 79 83 0
-1 -79 -83 0
2 79 105 0
-2 -79 -105 0
1 80 84 0
-1 -80 -84 0
2 80 106 0
-2 -80 -106 0
1 81 85 0
-1 -81 -85 0
2 81 107 0
-2 -81 -107 0
1 82 86 0
-1 -82 -86 0
2 82 108 0
-2 -82 -108 0
1 83 87 0
-1 -83 -87 0
2 83 109 0
-2 -83 -109 0
1 84 88 0
-1 -84 -88 0
2 84 110 0
-2 -84 -110 0
1 85 89 0
-1 -85 -89 0
2 85 111 0
-2 -85 -111 0
1 86 90 0
-1 -86 -90 0
2 86 112 0
-2 -86 -112 0
1 87 91 0
-1 -87 -91 0
2 87 113 0
-2 -87 -113 0
1 88 92 0
-1 -88 -92 0
2 88 114 0
-2 -88 -114 0
1 89 93 0
-1 -89 -93 0
2 89 115 0
-2 -89 -115 0
1 90 94 0
-1 -90 -94 0
2 90 116 0
-2 -90 -116 0
1 91 95 0
-1 -91 -95 0
2 91 117 0
-2 -91 -117 0
1 92 96 0
-1 -92 -96 0
2 92 118 0
-2 -92 -118 0
1 93 97 0
-1 -93 -97 0
2 93 119 0
-2 -93 -119 0
1 94 98 0
-1 -94 -98 0
1 95 99 0
-1 -95 -99 0
1 96 100 0
-1 -96 -100 0
1 97 101 0
-1 -97 -101 0
1 98 102 0
-1 -98 -102 0
1 99 103 0
-1 -99 -103 0
1 100 104 0
-1 -100 -104 0
1 101 105 0
-1 -101 -105 0
1 102 106 0
-1 -102 -106 0
1 103 107 0
-1 -103 -107 0
1 104 108 0
-1 -104 -108 0
1 105 109 0
-1 -105 -109 0
1 106 110 0
-1 -106 -110 0
1 107 111 0
-1 -107 -111 0
1 108 112 0
-1 -108 -112 0
1 109 113 0
-1 -109 -113 0
1 110 114 0
-1 -110 -114 0
1 111 115 0
-1 -111 -115 0
1 112 116 0
-1 -112 -116 0
1 113 117 0
-1 -113 -117 0
1 114 118 0
-1 -114 -118 0
1 115 119 0
-1 -115 -119 0
