certificates/rado_a22_c18_N119.drat
-115 -119 0
d -115 -1 -119 0
23 27 115 0
-5 -119 0
-119 0
115 0
5 0
-1 0
-97 0
-23 0
101 0
93 0
27 0
19 0
-9 0
-111 0
13 0
107 0
-105 0
-15 0
109 0
11 0
-17 0
-103 0
21 0
99 0
-113 0
-7 0
117 0
3 0
-25 0
-51 0
-95 0
-6 0
-53 0
-61 0
-69 0
-75 0
-45 0
-67 0
-59 0
29 0
55 0
47 0
2 0
91 0
4 0
10 0
57 0
49 0
65 0
73 0
79 0
71 0
41 0
63 0
0
